; benchmark generated from python API
(set-info :status unknown)
(declare-fun cell_1_5 () Int)
(declare-fun cell_1_8 () Int)
(declare-fun cell_2_1 () Int)
(declare-fun cell_2_3 () Int)
(declare-fun cell_3_5 () Int)
(declare-fun cell_3_9 () Int)
(declare-fun cell_4_4 () Int)
(declare-fun cell_4_6 () Int)
(declare-fun cell_5_3 () Int)
(declare-fun cell_5_8 () Int)
(declare-fun cell_6_9 () Int)
(declare-fun cell_7_7 () Int)
(declare-fun cell_8_2 () Int)
(declare-fun cell_9_6 () Int)
(declare-fun cell_1_1 () Int)
(declare-fun cell_3_1 () Int)
(declare-fun cell_4_1 () Int)
(declare-fun cell_5_1 () Int)
(declare-fun cell_6_1 () Int)
(declare-fun cell_7_1 () Int)
(declare-fun cell_8_1 () Int)
(declare-fun cell_9_1 () Int)
(declare-fun cell_1_2 () Int)
(declare-fun cell_2_2 () Int)
(declare-fun cell_3_2 () Int)
(declare-fun cell_4_2 () Int)
(declare-fun cell_5_2 () Int)
(declare-fun cell_6_2 () Int)
(declare-fun cell_7_2 () Int)
(declare-fun cell_9_2 () Int)
(declare-fun cell_1_3 () Int)
(declare-fun cell_3_3 () Int)
(declare-fun cell_4_3 () Int)
(declare-fun cell_6_3 () Int)
(declare-fun cell_7_3 () Int)
(declare-fun cell_8_3 () Int)
(declare-fun cell_9_3 () Int)
(declare-fun cell_1_4 () Int)
(declare-fun cell_2_4 () Int)
(declare-fun cell_3_4 () Int)
(declare-fun cell_5_4 () Int)
(declare-fun cell_6_4 () Int)
(declare-fun cell_7_4 () Int)
(declare-fun cell_8_4 () Int)
(declare-fun cell_9_4 () Int)
(declare-fun cell_2_5 () Int)
(declare-fun cell_4_5 () Int)
(declare-fun cell_5_5 () Int)
(declare-fun cell_6_5 () Int)
(declare-fun cell_7_5 () Int)
(declare-fun cell_8_5 () Int)
(declare-fun cell_9_5 () Int)
(declare-fun cell_1_6 () Int)
(declare-fun cell_2_6 () Int)
(declare-fun cell_3_6 () Int)
(declare-fun cell_5_6 () Int)
(declare-fun cell_6_6 () Int)
(declare-fun cell_7_6 () Int)
(declare-fun cell_8_6 () Int)
(declare-fun cell_1_7 () Int)
(declare-fun cell_2_7 () Int)
(declare-fun cell_3_7 () Int)
(declare-fun cell_4_7 () Int)
(declare-fun cell_5_7 () Int)
(declare-fun cell_6_7 () Int)
(declare-fun cell_8_7 () Int)
(declare-fun cell_9_7 () Int)
(declare-fun cell_2_8 () Int)
(declare-fun cell_3_8 () Int)
(declare-fun cell_4_8 () Int)
(declare-fun cell_6_8 () Int)
(declare-fun cell_7_8 () Int)
(declare-fun cell_8_8 () Int)
(declare-fun cell_9_8 () Int)
(declare-fun cell_1_9 () Int)
(declare-fun cell_2_9 () Int)
(declare-fun cell_4_9 () Int)
(declare-fun cell_5_9 () Int)
(declare-fun cell_7_9 () Int)
(declare-fun cell_8_9 () Int)
(declare-fun cell_9_9 () Int)
(assert
 (= cell_1_5 2))
(assert
 (= cell_1_8 1))
(assert
 (= cell_2_1 1))
(assert
 (= cell_2_3 2))
(assert
 (= cell_3_5 1))
(assert
 (= cell_3_9 2))
(assert
 (= cell_4_4 1))
(assert
 (= cell_4_6 2))
(assert
 (= cell_5_3 1))
(assert
 (= cell_5_8 2))
(assert
 (= cell_6_9 1))
(assert
 (= cell_7_7 1))
(assert
 (= cell_8_2 1))
(assert
 (= cell_9_6 1))
(assert
 (let (($x3412 (= cell_1_1 9)))
 (let (($x4859 (= cell_1_1 8)))
 (let (($x229 (= cell_1_1 7)))
 (let (($x1835 (= cell_1_1 6)))
 (let (($x7917 (= cell_1_1 5)))
 (let (($x9694 (= cell_1_1 4)))
 (let (($x7754 (= cell_1_1 3)))
 (let (($x4477 (= cell_1_1 2)))
 (let (($x4127 (= cell_1_1 1)))
 (or $x4127 $x4477 $x7754 $x9694 $x7917 $x1835 $x229 $x4859 $x3412)))))))))))
(assert
 (let (($x9941 (= cell_2_1 1)))
 (or $x9941 (= cell_2_1 2) (= cell_2_1 3) (= cell_2_1 4) (= cell_2_1 5) (= cell_2_1 6) (= cell_2_1 7) (= cell_2_1 8) (= cell_2_1 9))))
(assert
 (let (($x9441 (= cell_3_1 9)))
 (let (($x4043 (= cell_3_1 8)))
 (let (($x9439 (= cell_3_1 7)))
 (let (($x6945 (= cell_3_1 6)))
 (let (($x8616 (= cell_3_1 5)))
 (let (($x8788 (= cell_3_1 4)))
 (let (($x4439 (= cell_3_1 3)))
 (let (($x5117 (= cell_3_1 2)))
 (let (($x6436 (= cell_3_1 1)))
 (or $x6436 $x5117 $x4439 $x8788 $x8616 $x6945 $x9439 $x4043 $x9441)))))))))))
(assert
 (let (($x2956 (= cell_4_1 9)))
 (let (($x5074 (= cell_4_1 8)))
 (let (($x8961 (= cell_4_1 7)))
 (let (($x324 (= cell_4_1 6)))
 (let (($x14 (= cell_4_1 5)))
 (let (($x5669 (= cell_4_1 4)))
 (let (($x9583 (= cell_4_1 3)))
 (let (($x9447 (= cell_4_1 2)))
 (let (($x822 (= cell_4_1 1)))
 (or $x822 $x9447 $x9583 $x5669 $x14 $x324 $x8961 $x5074 $x2956)))))))))))
(assert
 (let (($x7323 (= cell_5_1 9)))
 (let (($x1203 (= cell_5_1 8)))
 (let (($x6493 (= cell_5_1 7)))
 (let (($x5325 (= cell_5_1 6)))
 (let (($x6846 (= cell_5_1 5)))
 (let (($x7068 (= cell_5_1 4)))
 (let (($x5500 (= cell_5_1 3)))
 (let (($x212 (= cell_5_1 2)))
 (let (($x2451 (= cell_5_1 1)))
 (or $x2451 $x212 $x5500 $x7068 $x6846 $x5325 $x6493 $x1203 $x7323)))))))))))
(assert
 (let (($x6550 (= cell_6_1 9)))
 (let (($x4746 (= cell_6_1 8)))
 (let (($x8152 (= cell_6_1 7)))
 (let (($x9457 (= cell_6_1 6)))
 (let (($x3066 (= cell_6_1 5)))
 (let (($x3430 (= cell_6_1 4)))
 (let (($x3916 (= cell_6_1 3)))
 (let (($x575 (= cell_6_1 2)))
 (let (($x10180 (= cell_6_1 1)))
 (or $x10180 $x575 $x3916 $x3430 $x3066 $x9457 $x8152 $x4746 $x6550)))))))))))
(assert
 (let (($x9413 (= cell_7_1 9)))
 (let (($x8063 (= cell_7_1 8)))
 (let (($x2615 (= cell_7_1 7)))
 (let (($x6873 (= cell_7_1 6)))
 (let (($x6258 (= cell_7_1 5)))
 (let (($x5613 (= cell_7_1 4)))
 (let (($x4211 (= cell_7_1 3)))
 (let (($x4525 (= cell_7_1 2)))
 (let (($x3924 (= cell_7_1 1)))
 (or $x3924 $x4525 $x4211 $x5613 $x6258 $x6873 $x2615 $x8063 $x9413)))))))))))
(assert
 (let (($x7664 (= cell_8_1 9)))
 (let (($x408 (= cell_8_1 8)))
 (let (($x10240 (= cell_8_1 7)))
 (let (($x3095 (= cell_8_1 6)))
 (let (($x4483 (= cell_8_1 5)))
 (let (($x1933 (= cell_8_1 4)))
 (let (($x497 (= cell_8_1 3)))
 (let (($x3517 (= cell_8_1 2)))
 (let (($x859 (= cell_8_1 1)))
 (or $x859 $x3517 $x497 $x1933 $x4483 $x3095 $x10240 $x408 $x7664)))))))))))
(assert
 (let (($x87 (= cell_9_1 9)))
 (let (($x9081 (= cell_9_1 8)))
 (let (($x8516 (= cell_9_1 7)))
 (let (($x1444 (= cell_9_1 6)))
 (let (($x2896 (= cell_9_1 5)))
 (let (($x4622 (= cell_9_1 4)))
 (let (($x2153 (= cell_9_1 3)))
 (let (($x3598 (= cell_9_1 2)))
 (let (($x2157 (= cell_9_1 1)))
 (or $x2157 $x3598 $x2153 $x4622 $x2896 $x1444 $x8516 $x9081 $x87)))))))))))
(assert
 (let (($x1036 (= cell_1_2 9)))
 (let (($x7774 (= cell_1_2 8)))
 (let (($x3510 (= cell_1_2 7)))
 (let (($x799 (= cell_1_2 6)))
 (let (($x3149 (= cell_1_2 5)))
 (let (($x1292 (= cell_1_2 4)))
 (let (($x9025 (= cell_1_2 3)))
 (let (($x8829 (= cell_1_2 2)))
 (let (($x9832 (= cell_1_2 1)))
 (or $x9832 $x8829 $x9025 $x1292 $x3149 $x799 $x3510 $x7774 $x1036)))))))))))
(assert
 (let (($x8699 (= cell_2_2 9)))
 (let (($x3793 (= cell_2_2 8)))
 (let (($x8596 (= cell_2_2 7)))
 (let (($x3253 (= cell_2_2 6)))
 (let (($x4101 (= cell_2_2 5)))
 (let (($x6324 (= cell_2_2 4)))
 (let (($x6721 (= cell_2_2 3)))
 (let (($x2780 (= cell_2_2 2)))
 (let (($x8801 (= cell_2_2 1)))
 (or $x8801 $x2780 $x6721 $x6324 $x4101 $x3253 $x8596 $x3793 $x8699)))))))))))
(assert
 (let (($x2192 (= cell_3_2 9)))
 (let (($x2253 (= cell_3_2 8)))
 (let (($x7690 (= cell_3_2 7)))
 (let (($x3192 (= cell_3_2 6)))
 (let (($x3458 (= cell_3_2 5)))
 (let (($x8512 (= cell_3_2 4)))
 (let (($x10181 (= cell_3_2 3)))
 (let (($x9061 (= cell_3_2 2)))
 (let (($x6617 (= cell_3_2 1)))
 (or $x6617 $x9061 $x10181 $x8512 $x3458 $x3192 $x7690 $x2253 $x2192)))))))))))
(assert
 (let (($x8462 (= cell_4_2 9)))
 (let (($x9997 (= cell_4_2 8)))
 (let (($x6712 (= cell_4_2 7)))
 (let (($x6403 (= cell_4_2 6)))
 (let (($x3398 (= cell_4_2 5)))
 (let (($x9301 (= cell_4_2 4)))
 (let (($x6877 (= cell_4_2 3)))
 (let (($x6575 (= cell_4_2 2)))
 (let (($x5651 (= cell_4_2 1)))
 (or $x5651 $x6575 $x6877 $x9301 $x3398 $x6403 $x6712 $x9997 $x8462)))))))))))
(assert
 (let (($x9132 (= cell_5_2 9)))
 (let (($x6565 (= cell_5_2 8)))
 (let (($x1154 (= cell_5_2 7)))
 (let (($x5575 (= cell_5_2 6)))
 (let (($x3187 (= cell_5_2 5)))
 (let (($x6805 (= cell_5_2 4)))
 (let (($x7778 (= cell_5_2 3)))
 (let (($x295 (= cell_5_2 2)))
 (let (($x8833 (= cell_5_2 1)))
 (or $x8833 $x295 $x7778 $x6805 $x3187 $x5575 $x1154 $x6565 $x9132)))))))))))
(assert
 (let (($x2120 (= cell_6_2 9)))
 (let (($x711 (= cell_6_2 8)))
 (let (($x9996 (= cell_6_2 7)))
 (let (($x7263 (= cell_6_2 6)))
 (let (($x2714 (= cell_6_2 5)))
 (let (($x6765 (= cell_6_2 4)))
 (let (($x7896 (= cell_6_2 3)))
 (let (($x66 (= cell_6_2 2)))
 (let (($x78 (= cell_6_2 1)))
 (or $x78 $x66 $x7896 $x6765 $x2714 $x7263 $x9996 $x711 $x2120)))))))))))
(assert
 (let (($x6241 (= cell_7_2 9)))
 (let (($x305 (= cell_7_2 8)))
 (let (($x8908 (= cell_7_2 7)))
 (let (($x8533 (= cell_7_2 6)))
 (let (($x7948 (= cell_7_2 5)))
 (let (($x257 (= cell_7_2 4)))
 (let (($x2988 (= cell_7_2 3)))
 (let (($x966 (= cell_7_2 2)))
 (let (($x1501 (= cell_7_2 1)))
 (or $x1501 $x966 $x2988 $x257 $x7948 $x8533 $x8908 $x305 $x6241)))))))))))
(assert
 (let (($x7804 (= cell_8_2 1)))
 (or $x7804 (= cell_8_2 2) (= cell_8_2 3) (= cell_8_2 4) (= cell_8_2 5) (= cell_8_2 6) (= cell_8_2 7) (= cell_8_2 8) (= cell_8_2 9))))
(assert
 (let (($x8637 (= cell_9_2 9)))
 (let (($x6868 (= cell_9_2 8)))
 (let (($x8429 (= cell_9_2 7)))
 (let (($x9875 (= cell_9_2 6)))
 (let (($x545 (= cell_9_2 5)))
 (let (($x2002 (= cell_9_2 4)))
 (let (($x5433 (= cell_9_2 3)))
 (let (($x7663 (= cell_9_2 2)))
 (let (($x8418 (= cell_9_2 1)))
 (or $x8418 $x7663 $x5433 $x2002 $x545 $x9875 $x8429 $x6868 $x8637)))))))))))
(assert
 (let (($x2113 (= cell_1_3 9)))
 (let (($x1809 (= cell_1_3 8)))
 (let (($x6334 (= cell_1_3 7)))
 (let (($x757 (= cell_1_3 6)))
 (let (($x3749 (= cell_1_3 5)))
 (let (($x6050 (= cell_1_3 4)))
 (let (($x5991 (= cell_1_3 3)))
 (let (($x9703 (= cell_1_3 2)))
 (let (($x7566 (= cell_1_3 1)))
 (or $x7566 $x9703 $x5991 $x6050 $x3749 $x757 $x6334 $x1809 $x2113)))))))))))
(assert
 (let (($x2488 (= cell_2_3 2)))
 (or (= cell_2_3 1) $x2488 (= cell_2_3 3) (= cell_2_3 4) (= cell_2_3 5) (= cell_2_3 6) (= cell_2_3 7) (= cell_2_3 8) (= cell_2_3 9))))
(assert
 (let (($x6924 (= cell_3_3 9)))
 (let (($x8051 (= cell_3_3 8)))
 (let (($x5055 (= cell_3_3 7)))
 (let (($x1717 (= cell_3_3 6)))
 (let (($x5962 (= cell_3_3 5)))
 (let (($x3214 (= cell_3_3 4)))
 (let (($x6789 (= cell_3_3 3)))
 (let (($x1409 (= cell_3_3 2)))
 (let (($x6655 (= cell_3_3 1)))
 (or $x6655 $x1409 $x6789 $x3214 $x5962 $x1717 $x5055 $x8051 $x6924)))))))))))
(assert
 (let (($x291 (= cell_4_3 9)))
 (let (($x8657 (= cell_4_3 8)))
 (let (($x4052 (= cell_4_3 7)))
 (let (($x551 (= cell_4_3 6)))
 (let (($x3129 (= cell_4_3 5)))
 (let (($x6473 (= cell_4_3 4)))
 (let (($x4037 (= cell_4_3 3)))
 (let (($x9181 (= cell_4_3 2)))
 (let (($x4731 (= cell_4_3 1)))
 (or $x4731 $x9181 $x4037 $x6473 $x3129 $x551 $x4052 $x8657 $x291)))))))))))
(assert
 (let (($x4842 (= cell_5_3 1)))
 (or $x4842 (= cell_5_3 2) (= cell_5_3 3) (= cell_5_3 4) (= cell_5_3 5) (= cell_5_3 6) (= cell_5_3 7) (= cell_5_3 8) (= cell_5_3 9))))
(assert
 (let (($x4661 (= cell_6_3 9)))
 (let (($x7604 (= cell_6_3 8)))
 (let (($x5898 (= cell_6_3 7)))
 (let (($x10140 (= cell_6_3 6)))
 (let (($x8426 (= cell_6_3 5)))
 (let (($x8278 (= cell_6_3 4)))
 (let (($x170 (= cell_6_3 3)))
 (let (($x7209 (= cell_6_3 2)))
 (let (($x881 (= cell_6_3 1)))
 (or $x881 $x7209 $x170 $x8278 $x8426 $x10140 $x5898 $x7604 $x4661)))))))))))
(assert
 (let (($x459 (= cell_7_3 9)))
 (let (($x4413 (= cell_7_3 8)))
 (let (($x9754 (= cell_7_3 7)))
 (let (($x5401 (= cell_7_3 6)))
 (let (($x5282 (= cell_7_3 5)))
 (let (($x8480 (= cell_7_3 4)))
 (let (($x962 (= cell_7_3 3)))
 (let (($x7399 (= cell_7_3 2)))
 (let (($x1400 (= cell_7_3 1)))
 (or $x1400 $x7399 $x962 $x8480 $x5282 $x5401 $x9754 $x4413 $x459)))))))))))
(assert
 (let (($x9893 (= cell_8_3 2)))
 (let (($x5115 (= cell_8_3 1)))
 (or $x5115 $x9893 (= cell_8_3 3) (= cell_8_3 4) (= cell_8_3 5) (= cell_8_3 6) (= cell_8_3 7) (= cell_8_3 8) (= cell_8_3 9)))))
(assert
 (let (($x2123 (= cell_9_3 9)))
 (let (($x591 (= cell_9_3 8)))
 (let (($x7171 (= cell_9_3 7)))
 (let (($x7363 (= cell_9_3 6)))
 (let (($x6180 (= cell_9_3 5)))
 (let (($x904 (= cell_9_3 4)))
 (let (($x5490 (= cell_9_3 3)))
 (let (($x2280 (= cell_9_3 2)))
 (let (($x9987 (= cell_9_3 1)))
 (or $x9987 $x2280 $x5490 $x904 $x6180 $x7363 $x7171 $x591 $x2123)))))))))))
(assert
 (let (($x5132 (= cell_1_4 9)))
 (let (($x2084 (= cell_1_4 8)))
 (let (($x3426 (= cell_1_4 7)))
 (let (($x3132 (= cell_1_4 6)))
 (let (($x4247 (= cell_1_4 5)))
 (let (($x9750 (= cell_1_4 4)))
 (let (($x5751 (= cell_1_4 3)))
 (let (($x1747 (= cell_1_4 2)))
 (let (($x9446 (= cell_1_4 1)))
 (or $x9446 $x1747 $x5751 $x9750 $x4247 $x3132 $x3426 $x2084 $x5132)))))))))))
(assert
 (let (($x10083 (= cell_2_4 9)))
 (let (($x729 (= cell_2_4 8)))
 (let (($x4175 (= cell_2_4 7)))
 (let (($x1659 (= cell_2_4 6)))
 (let (($x6251 (= cell_2_4 5)))
 (let (($x2114 (= cell_2_4 4)))
 (let (($x9629 (= cell_2_4 3)))
 (let (($x9371 (= cell_2_4 2)))
 (let (($x4835 (= cell_2_4 1)))
 (or $x4835 $x9371 $x9629 $x2114 $x6251 $x1659 $x4175 $x729 $x10083)))))))))))
(assert
 (let (($x3408 (= cell_3_4 9)))
 (let (($x7922 (= cell_3_4 8)))
 (let (($x9474 (= cell_3_4 7)))
 (let (($x4228 (= cell_3_4 6)))
 (let (($x2138 (= cell_3_4 5)))
 (let (($x1578 (= cell_3_4 4)))
 (let (($x8580 (= cell_3_4 3)))
 (let (($x7382 (= cell_3_4 2)))
 (let (($x599 (= cell_3_4 1)))
 (or $x599 $x7382 $x8580 $x1578 $x2138 $x4228 $x9474 $x7922 $x3408)))))))))))
(assert
 (let (($x2501 (= cell_4_4 1)))
 (or $x2501 (= cell_4_4 2) (= cell_4_4 3) (= cell_4_4 4) (= cell_4_4 5) (= cell_4_4 6) (= cell_4_4 7) (= cell_4_4 8) (= cell_4_4 9))))
(assert
 (let (($x1395 (= cell_5_4 9)))
 (let (($x3822 (= cell_5_4 8)))
 (let (($x5576 (= cell_5_4 7)))
 (let (($x3288 (= cell_5_4 6)))
 (let (($x7387 (= cell_5_4 5)))
 (let (($x7653 (= cell_5_4 4)))
 (let (($x5241 (= cell_5_4 3)))
 (let (($x3996 (= cell_5_4 2)))
 (let (($x9236 (= cell_5_4 1)))
 (or $x9236 $x3996 $x5241 $x7653 $x7387 $x3288 $x5576 $x3822 $x1395)))))))))))
(assert
 (let (($x50 (= cell_6_4 9)))
 (let (($x6750 (= cell_6_4 8)))
 (let (($x1912 (= cell_6_4 7)))
 (let (($x8021 (= cell_6_4 6)))
 (let (($x6996 (= cell_6_4 5)))
 (let (($x4362 (= cell_6_4 4)))
 (let (($x766 (= cell_6_4 3)))
 (let (($x4875 (= cell_6_4 2)))
 (let (($x4372 (= cell_6_4 1)))
 (or $x4372 $x4875 $x766 $x4362 $x6996 $x8021 $x1912 $x6750 $x50)))))))))))
(assert
 (let (($x9190 (= cell_7_4 9)))
 (let (($x7909 (= cell_7_4 8)))
 (let (($x1268 (= cell_7_4 7)))
 (let (($x780 (= cell_7_4 6)))
 (let (($x6112 (= cell_7_4 5)))
 (let (($x4623 (= cell_7_4 4)))
 (let (($x6461 (= cell_7_4 3)))
 (let (($x1234 (= cell_7_4 2)))
 (let (($x9772 (= cell_7_4 1)))
 (or $x9772 $x1234 $x6461 $x4623 $x6112 $x780 $x1268 $x7909 $x9190)))))))))))
(assert
 (let (($x7248 (= cell_8_4 9)))
 (let (($x1144 (= cell_8_4 8)))
 (let (($x3718 (= cell_8_4 7)))
 (let (($x5950 (= cell_8_4 6)))
 (let (($x6081 (= cell_8_4 5)))
 (let (($x437 (= cell_8_4 4)))
 (let (($x2182 (= cell_8_4 3)))
 (let (($x7349 (= cell_8_4 2)))
 (let (($x2677 (= cell_8_4 1)))
 (or $x2677 $x7349 $x2182 $x437 $x6081 $x5950 $x3718 $x1144 $x7248)))))))))))
(assert
 (let (($x1862 (= cell_9_4 9)))
 (let (($x1207 (= cell_9_4 8)))
 (let (($x6104 (= cell_9_4 7)))
 (let (($x8464 (= cell_9_4 6)))
 (let (($x8739 (= cell_9_4 5)))
 (let (($x1308 (= cell_9_4 4)))
 (let (($x1173 (= cell_9_4 3)))
 (let (($x1801 (= cell_9_4 2)))
 (let (($x8561 (= cell_9_4 1)))
 (or $x8561 $x1801 $x1173 $x1308 $x8739 $x8464 $x6104 $x1207 $x1862)))))))))))
(assert
 (let (($x4952 (= cell_1_5 2)))
 (or (= cell_1_5 1) $x4952 (= cell_1_5 3) (= cell_1_5 4) (= cell_1_5 5) (= cell_1_5 6) (= cell_1_5 7) (= cell_1_5 8) (= cell_1_5 9))))
(assert
 (let (($x2612 (= cell_2_5 9)))
 (let (($x301 (= cell_2_5 8)))
 (let (($x2871 (= cell_2_5 7)))
 (let (($x8841 (= cell_2_5 6)))
 (let (($x5541 (= cell_2_5 5)))
 (let (($x5040 (= cell_2_5 4)))
 (let (($x458 (= cell_2_5 3)))
 (let (($x10011 (= cell_2_5 2)))
 (let (($x2248 (= cell_2_5 1)))
 (or $x2248 $x10011 $x458 $x5040 $x5541 $x8841 $x2871 $x301 $x2612)))))))))))
(assert
 (let (($x1226 (= cell_3_5 1)))
 (or $x1226 (= cell_3_5 2) (= cell_3_5 3) (= cell_3_5 4) (= cell_3_5 5) (= cell_3_5 6) (= cell_3_5 7) (= cell_3_5 8) (= cell_3_5 9))))
(assert
 (let (($x5841 (= cell_4_5 9)))
 (let (($x165 (= cell_4_5 8)))
 (let (($x8420 (= cell_4_5 7)))
 (let (($x1174 (= cell_4_5 6)))
 (let (($x1820 (= cell_4_5 5)))
 (let (($x4251 (= cell_4_5 4)))
 (let (($x3327 (= cell_4_5 3)))
 (let (($x1794 (= cell_4_5 2)))
 (let (($x1069 (= cell_4_5 1)))
 (or $x1069 $x1794 $x3327 $x4251 $x1820 $x1174 $x8420 $x165 $x5841)))))))))))
(assert
 (let (($x7657 (= cell_5_5 9)))
 (let (($x4448 (= cell_5_5 8)))
 (let (($x8804 (= cell_5_5 7)))
 (let (($x1150 (= cell_5_5 6)))
 (let (($x475 (= cell_5_5 5)))
 (let (($x2032 (= cell_5_5 4)))
 (let (($x431 (= cell_5_5 3)))
 (let (($x3349 (= cell_5_5 2)))
 (let (($x4935 (= cell_5_5 1)))
 (or $x4935 $x3349 $x431 $x2032 $x475 $x1150 $x8804 $x4448 $x7657)))))))))))
(assert
 (let (($x1135 (= cell_6_5 9)))
 (let (($x4964 (= cell_6_5 8)))
 (let (($x5358 (= cell_6_5 7)))
 (let (($x4881 (= cell_6_5 6)))
 (let (($x7445 (= cell_6_5 5)))
 (let (($x4363 (= cell_6_5 4)))
 (let (($x2841 (= cell_6_5 3)))
 (let (($x9727 (= cell_6_5 2)))
 (let (($x5410 (= cell_6_5 1)))
 (or $x5410 $x9727 $x2841 $x4363 $x7445 $x4881 $x5358 $x4964 $x1135)))))))))))
(assert
 (let (($x953 (= cell_7_5 9)))
 (let (($x9498 (= cell_7_5 8)))
 (let (($x8757 (= cell_7_5 7)))
 (let (($x2146 (= cell_7_5 6)))
 (let (($x6433 (= cell_7_5 5)))
 (let (($x6462 (= cell_7_5 4)))
 (let (($x8030 (= cell_7_5 3)))
 (let (($x6223 (= cell_7_5 2)))
 (let (($x8540 (= cell_7_5 1)))
 (or $x8540 $x6223 $x8030 $x6462 $x6433 $x2146 $x8757 $x9498 $x953)))))))))))
(assert
 (let (($x4436 (= cell_8_5 9)))
 (let (($x6017 (= cell_8_5 8)))
 (let (($x10060 (= cell_8_5 7)))
 (let (($x727 (= cell_8_5 6)))
 (let (($x1080 (= cell_8_5 5)))
 (let (($x9396 (= cell_8_5 4)))
 (let (($x5481 (= cell_8_5 3)))
 (let (($x6857 (= cell_8_5 2)))
 (let (($x3034 (= cell_8_5 1)))
 (or $x3034 $x6857 $x5481 $x9396 $x1080 $x727 $x10060 $x6017 $x4436)))))))))))
(assert
 (let (($x8457 (= cell_9_5 9)))
 (let (($x7329 (= cell_9_5 8)))
 (let (($x9724 (= cell_9_5 7)))
 (let (($x2823 (= cell_9_5 6)))
 (let (($x7288 (= cell_9_5 5)))
 (let (($x5053 (= cell_9_5 4)))
 (let (($x5800 (= cell_9_5 3)))
 (let (($x6643 (= cell_9_5 2)))
 (let (($x7361 (= cell_9_5 1)))
 (or $x7361 $x6643 $x5800 $x5053 $x7288 $x2823 $x9724 $x7329 $x8457)))))))))))
(assert
 (let (($x8405 (= cell_1_6 9)))
 (let (($x3902 (= cell_1_6 8)))
 (let (($x7967 (= cell_1_6 7)))
 (let (($x289 (= cell_1_6 6)))
 (let (($x5983 (= cell_1_6 5)))
 (let (($x7807 (= cell_1_6 4)))
 (let (($x4327 (= cell_1_6 3)))
 (let (($x5094 (= cell_1_6 2)))
 (let (($x8676 (= cell_1_6 1)))
 (or $x8676 $x5094 $x4327 $x7807 $x5983 $x289 $x7967 $x3902 $x8405)))))))))))
(assert
 (let (($x3027 (= cell_2_6 9)))
 (let (($x9473 (= cell_2_6 8)))
 (let (($x9993 (= cell_2_6 7)))
 (let (($x7829 (= cell_2_6 6)))
 (let (($x5813 (= cell_2_6 5)))
 (let (($x984 (= cell_2_6 4)))
 (let (($x309 (= cell_2_6 3)))
 (let (($x2106 (= cell_2_6 2)))
 (let (($x8703 (= cell_2_6 1)))
 (or $x8703 $x2106 $x309 $x984 $x5813 $x7829 $x9993 $x9473 $x3027)))))))))))
(assert
 (let (($x6601 (= cell_3_6 9)))
 (let (($x3639 (= cell_3_6 8)))
 (let (($x1617 (= cell_3_6 7)))
 (let (($x1705 (= cell_3_6 6)))
 (let (($x10085 (= cell_3_6 5)))
 (let (($x4998 (= cell_3_6 4)))
 (let (($x54 (= cell_3_6 3)))
 (let (($x9347 (= cell_3_6 2)))
 (let (($x5211 (= cell_3_6 1)))
 (or $x5211 $x9347 $x54 $x4998 $x10085 $x1705 $x1617 $x3639 $x6601)))))))))))
(assert
 (let (($x4774 (= cell_4_6 2)))
 (or (= cell_4_6 1) $x4774 (= cell_4_6 3) (= cell_4_6 4) (= cell_4_6 5) (= cell_4_6 6) (= cell_4_6 7) (= cell_4_6 8) (= cell_4_6 9))))
(assert
 (let (($x6700 (= cell_5_6 9)))
 (let (($x4572 (= cell_5_6 8)))
 (let (($x8157 (= cell_5_6 7)))
 (let (($x5376 (= cell_5_6 6)))
 (let (($x10018 (= cell_5_6 5)))
 (let (($x1541 (= cell_5_6 4)))
 (let (($x4015 (= cell_5_6 3)))
 (let (($x7402 (= cell_5_6 2)))
 (let (($x3022 (= cell_5_6 1)))
 (or $x3022 $x7402 $x4015 $x1541 $x10018 $x5376 $x8157 $x4572 $x6700)))))))))))
(assert
 (let (($x5140 (= cell_6_6 9)))
 (let (($x9665 (= cell_6_6 8)))
 (let (($x1661 (= cell_6_6 7)))
 (let (($x8125 (= cell_6_6 6)))
 (let (($x1685 (= cell_6_6 5)))
 (let (($x1583 (= cell_6_6 4)))
 (let (($x9248 (= cell_6_6 3)))
 (let (($x1218 (= cell_6_6 2)))
 (let (($x9043 (= cell_6_6 1)))
 (or $x9043 $x1218 $x9248 $x1583 $x1685 $x8125 $x1661 $x9665 $x5140)))))))))))
(assert
 (let (($x5906 (= cell_7_6 9)))
 (let (($x5998 (= cell_7_6 8)))
 (let (($x4825 (= cell_7_6 7)))
 (let (($x1724 (= cell_7_6 6)))
 (let (($x9911 (= cell_7_6 5)))
 (let (($x9029 (= cell_7_6 4)))
 (let (($x3980 (= cell_7_6 3)))
 (let (($x2481 (= cell_7_6 2)))
 (let (($x6587 (= cell_7_6 1)))
 (or $x6587 $x2481 $x3980 $x9029 $x9911 $x1724 $x4825 $x5998 $x5906)))))))))))
(assert
 (let (($x5897 (= cell_8_6 9)))
 (let (($x10002 (= cell_8_6 8)))
 (let (($x3621 (= cell_8_6 7)))
 (let (($x3662 (= cell_8_6 6)))
 (let (($x9423 (= cell_8_6 5)))
 (let (($x8530 (= cell_8_6 4)))
 (let (($x8050 (= cell_8_6 3)))
 (let (($x6552 (= cell_8_6 2)))
 (let (($x5304 (= cell_8_6 1)))
 (or $x5304 $x6552 $x8050 $x8530 $x9423 $x3662 $x3621 $x10002 $x5897)))))))))))
(assert
 (let (($x3699 (= cell_9_6 1)))
 (or $x3699 (= cell_9_6 2) (= cell_9_6 3) (= cell_9_6 4) (= cell_9_6 5) (= cell_9_6 6) (= cell_9_6 7) (= cell_9_6 8) (= cell_9_6 9))))
(assert
 (let (($x737 (= cell_1_7 9)))
 (let (($x2065 (= cell_1_7 8)))
 (let (($x6059 (= cell_1_7 7)))
 (let (($x6937 (= cell_1_7 6)))
 (let (($x5355 (= cell_1_7 5)))
 (let (($x2026 (= cell_1_7 4)))
 (let (($x7161 (= cell_1_7 3)))
 (let (($x2276 (= cell_1_7 2)))
 (let (($x3667 (= cell_1_7 1)))
 (or $x3667 $x2276 $x7161 $x2026 $x5355 $x6937 $x6059 $x2065 $x737)))))))))))
(assert
 (let (($x3650 (= cell_2_7 9)))
 (let (($x9374 (= cell_2_7 8)))
 (let (($x5755 (= cell_2_7 7)))
 (let (($x5594 (= cell_2_7 6)))
 (let (($x10106 (= cell_2_7 5)))
 (let (($x5474 (= cell_2_7 4)))
 (let (($x595 (= cell_2_7 3)))
 (let (($x1267 (= cell_2_7 2)))
 (let (($x8843 (= cell_2_7 1)))
 (or $x8843 $x1267 $x595 $x5474 $x10106 $x5594 $x5755 $x9374 $x3650)))))))))))
(assert
 (let (($x5135 (= cell_3_7 9)))
 (let (($x3839 (= cell_3_7 8)))
 (let (($x1270 (= cell_3_7 7)))
 (let (($x9598 (= cell_3_7 6)))
 (let (($x9699 (= cell_3_7 5)))
 (let (($x3503 (= cell_3_7 4)))
 (let (($x6248 (= cell_3_7 3)))
 (let (($x9469 (= cell_3_7 2)))
 (let (($x9131 (= cell_3_7 1)))
 (or $x9131 $x9469 $x6248 $x3503 $x9699 $x9598 $x1270 $x3839 $x5135)))))))))))
(assert
 (let (($x10126 (= cell_4_7 9)))
 (let (($x6903 (= cell_4_7 8)))
 (let (($x959 (= cell_4_7 7)))
 (let (($x8740 (= cell_4_7 6)))
 (let (($x71 (= cell_4_7 5)))
 (let (($x3262 (= cell_4_7 4)))
 (let (($x2803 (= cell_4_7 3)))
 (let (($x9105 (= cell_4_7 2)))
 (let (($x5033 (= cell_4_7 1)))
 (or $x5033 $x9105 $x2803 $x3262 $x71 $x8740 $x959 $x6903 $x10126)))))))))))
(assert
 (let (($x9508 (= cell_5_7 9)))
 (let (($x580 (= cell_5_7 8)))
 (let (($x5946 (= cell_5_7 7)))
 (let (($x7619 (= cell_5_7 6)))
 (let (($x6046 (= cell_5_7 5)))
 (let (($x7977 (= cell_5_7 4)))
 (let (($x2642 (= cell_5_7 3)))
 (let (($x4637 (= cell_5_7 2)))
 (let (($x8299 (= cell_5_7 1)))
 (or $x8299 $x4637 $x2642 $x7977 $x6046 $x7619 $x5946 $x580 $x9508)))))))))))
(assert
 (let (($x7928 (= cell_6_7 9)))
 (let (($x9947 (= cell_6_7 8)))
 (let (($x6278 (= cell_6_7 7)))
 (let (($x6152 (= cell_6_7 6)))
 (let (($x3075 (= cell_6_7 5)))
 (let (($x7078 (= cell_6_7 4)))
 (let (($x8814 (= cell_6_7 3)))
 (let (($x35 (= cell_6_7 2)))
 (let (($x6378 (= cell_6_7 1)))
 (or $x6378 $x35 $x8814 $x7078 $x3075 $x6152 $x6278 $x9947 $x7928)))))))))))
(assert
 (let (($x1715 (= cell_7_7 1)))
 (or $x1715 (= cell_7_7 2) (= cell_7_7 3) (= cell_7_7 4) (= cell_7_7 5) (= cell_7_7 6) (= cell_7_7 7) (= cell_7_7 8) (= cell_7_7 9))))
(assert
 (let (($x1975 (= cell_8_7 1)))
 (or $x1975 (= cell_8_7 2) (= cell_8_7 3) (= cell_8_7 4) (= cell_8_7 5) (= cell_8_7 6) (= cell_8_7 7) (= cell_8_7 8) (= cell_8_7 9))))
(assert
 (let (($x8034 (= cell_9_7 1)))
 (or $x8034 (= cell_9_7 2) (= cell_9_7 3) (= cell_9_7 4) (= cell_9_7 5) (= cell_9_7 6) (= cell_9_7 7) (= cell_9_7 8) (= cell_9_7 9))))
(assert
 (let (($x9847 (= cell_1_8 1)))
 (or $x9847 (= cell_1_8 2) (= cell_1_8 3) (= cell_1_8 4) (= cell_1_8 5) (= cell_1_8 6) (= cell_1_8 7) (= cell_1_8 8) (= cell_1_8 9))))
(assert
 (let (($x9567 (= cell_2_8 9)))
 (let (($x8019 (= cell_2_8 8)))
 (let (($x719 (= cell_2_8 7)))
 (let (($x8183 (= cell_2_8 6)))
 (let (($x3385 (= cell_2_8 5)))
 (let (($x7579 (= cell_2_8 4)))
 (let (($x9578 (= cell_2_8 3)))
 (let (($x5054 (= cell_2_8 2)))
 (let (($x8216 (= cell_2_8 1)))
 (or $x8216 $x5054 $x9578 $x7579 $x3385 $x8183 $x719 $x8019 $x9567)))))))))))
(assert
 (let (($x1647 (= cell_3_8 9)))
 (let (($x8780 (= cell_3_8 8)))
 (let (($x9394 (= cell_3_8 7)))
 (let (($x5658 (= cell_3_8 6)))
 (let (($x10021 (= cell_3_8 5)))
 (let (($x8625 (= cell_3_8 4)))
 (let (($x8060 (= cell_3_8 3)))
 (let (($x3962 (= cell_3_8 2)))
 (let (($x9346 (= cell_3_8 1)))
 (or $x9346 $x3962 $x8060 $x8625 $x10021 $x5658 $x9394 $x8780 $x1647)))))))))))
(assert
 (let (($x2257 (= cell_4_8 9)))
 (let (($x9166 (= cell_4_8 8)))
 (let (($x8291 (= cell_4_8 7)))
 (let (($x1345 (= cell_4_8 6)))
 (let (($x4252 (= cell_4_8 5)))
 (let (($x1708 (= cell_4_8 4)))
 (let (($x4839 (= cell_4_8 3)))
 (let (($x4349 (= cell_4_8 2)))
 (let (($x1346 (= cell_4_8 1)))
 (or $x1346 $x4349 $x4839 $x1708 $x4252 $x1345 $x8291 $x9166 $x2257)))))))))))
(assert
 (let (($x8273 (= cell_5_8 2)))
 (or (= cell_5_8 1) $x8273 (= cell_5_8 3) (= cell_5_8 4) (= cell_5_8 5) (= cell_5_8 6) (= cell_5_8 7) (= cell_5_8 8) (= cell_5_8 9))))
(assert
 (let (($x5303 (= cell_6_8 9)))
 (let (($x9826 (= cell_6_8 8)))
 (let (($x5679 (= cell_6_8 7)))
 (let (($x7273 (= cell_6_8 6)))
 (let (($x6319 (= cell_6_8 5)))
 (let (($x2638 (= cell_6_8 4)))
 (let (($x614 (= cell_6_8 3)))
 (let (($x5812 (= cell_6_8 2)))
 (let (($x7788 (= cell_6_8 1)))
 (or $x7788 $x5812 $x614 $x2638 $x6319 $x7273 $x5679 $x9826 $x5303)))))))))))
(assert
 (let (($x8264 (= cell_7_8 2)))
 (let (($x7570 (= cell_7_8 1)))
 (or $x7570 $x8264 (= cell_7_8 3) (= cell_7_8 4) (= cell_7_8 5) (= cell_7_8 6) (= cell_7_8 7) (= cell_7_8 8) (= cell_7_8 9)))))
(assert
 (let (($x6273 (= cell_8_8 2)))
 (let (($x8100 (= cell_8_8 1)))
 (or $x8100 $x6273 (= cell_8_8 3) (= cell_8_8 4) (= cell_8_8 5) (= cell_8_8 6) (= cell_8_8 7) (= cell_8_8 8) (= cell_8_8 9)))))
(assert
 (let (($x9859 (= cell_9_8 2)))
 (let (($x7070 (= cell_9_8 1)))
 (or $x7070 $x9859 (= cell_9_8 3) (= cell_9_8 4) (= cell_9_8 5) (= cell_9_8 6) (= cell_9_8 7) (= cell_9_8 8) (= cell_9_8 9)))))
(assert
 (let (($x5261 (= cell_1_9 9)))
 (let (($x1216 (= cell_1_9 8)))
 (let (($x10017 (= cell_1_9 7)))
 (let (($x4067 (= cell_1_9 6)))
 (let (($x10150 (= cell_1_9 5)))
 (let (($x465 (= cell_1_9 4)))
 (let (($x785 (= cell_1_9 3)))
 (let (($x4323 (= cell_1_9 2)))
 (let (($x7534 (= cell_1_9 1)))
 (or $x7534 $x4323 $x785 $x465 $x10150 $x4067 $x10017 $x1216 $x5261)))))))))))
(assert
 (let (($x3295 (= cell_2_9 9)))
 (let (($x8496 (= cell_2_9 8)))
 (let (($x7412 (= cell_2_9 7)))
 (let (($x1467 (= cell_2_9 6)))
 (let (($x9513 (= cell_2_9 5)))
 (let (($x2992 (= cell_2_9 4)))
 (let (($x4007 (= cell_2_9 3)))
 (let (($x3527 (= cell_2_9 2)))
 (let (($x1643 (= cell_2_9 1)))
 (or $x1643 $x3527 $x4007 $x2992 $x9513 $x1467 $x7412 $x8496 $x3295)))))))))))
(assert
 (let (($x9965 (= cell_3_9 2)))
 (or (= cell_3_9 1) $x9965 (= cell_3_9 3) (= cell_3_9 4) (= cell_3_9 5) (= cell_3_9 6) (= cell_3_9 7) (= cell_3_9 8) (= cell_3_9 9))))
(assert
 (let (($x8808 (= cell_4_9 9)))
 (let (($x863 (= cell_4_9 8)))
 (let (($x9507 (= cell_4_9 7)))
 (let (($x152 (= cell_4_9 6)))
 (let (($x298 (= cell_4_9 5)))
 (let (($x5593 (= cell_4_9 4)))
 (let (($x7691 (= cell_4_9 3)))
 (let (($x2435 (= cell_4_9 2)))
 (let (($x1298 (= cell_4_9 1)))
 (or $x1298 $x2435 $x7691 $x5593 $x298 $x152 $x9507 $x863 $x8808)))))))))))
(assert
 (let (($x3680 (= cell_5_9 9)))
 (let (($x2338 (= cell_5_9 8)))
 (let (($x9539 (= cell_5_9 7)))
 (let (($x3549 (= cell_5_9 6)))
 (let (($x4728 (= cell_5_9 5)))
 (let (($x5591 (= cell_5_9 4)))
 (let (($x1251 (= cell_5_9 3)))
 (let (($x4194 (= cell_5_9 2)))
 (let (($x3481 (= cell_5_9 1)))
 (or $x3481 $x4194 $x1251 $x5591 $x4728 $x3549 $x9539 $x2338 $x3680)))))))))))
(assert
 (let (($x9980 (= cell_6_9 1)))
 (or $x9980 (= cell_6_9 2) (= cell_6_9 3) (= cell_6_9 4) (= cell_6_9 5) (= cell_6_9 6) (= cell_6_9 7) (= cell_6_9 8) (= cell_6_9 9))))
(assert
 (let (($x2186 (= cell_7_9 2)))
 (let (($x6612 (= cell_7_9 1)))
 (or $x6612 $x2186 (= cell_7_9 3) (= cell_7_9 4) (= cell_7_9 5) (= cell_7_9 6) (= cell_7_9 7) (= cell_7_9 8) (= cell_7_9 9)))))
(assert
 (let (($x5924 (= cell_8_9 2)))
 (let (($x1447 (= cell_8_9 1)))
 (or $x1447 $x5924 (= cell_8_9 3) (= cell_8_9 4) (= cell_8_9 5) (= cell_8_9 6) (= cell_8_9 7) (= cell_8_9 8) (= cell_8_9 9)))))
(assert
 (let (($x6814 (= cell_9_9 2)))
 (let (($x6590 (= cell_9_9 1)))
 (or $x6590 $x6814 (= cell_9_9 3) (= cell_9_9 4) (= cell_9_9 5) (= cell_9_9 6) (= cell_9_9 7) (= cell_9_9 8) (= cell_9_9 9)))))
(assert
 (and (distinct cell_1_1 cell_1_2 cell_1_3 cell_1_4 cell_1_5 cell_1_6 cell_1_7 cell_1_8 cell_1_9) true))
(assert
 (and (distinct cell_2_1 cell_2_2 cell_2_3 cell_2_4 cell_2_5 cell_2_6 cell_2_7 cell_2_8 cell_2_9) true))
(assert
 (and (distinct cell_3_1 cell_3_2 cell_3_3 cell_3_4 cell_3_5 cell_3_6 cell_3_7 cell_3_8 cell_3_9) true))
(assert
 (and (distinct cell_4_1 cell_4_2 cell_4_3 cell_4_4 cell_4_5 cell_4_6 cell_4_7 cell_4_8 cell_4_9) true))
(assert
 (and (distinct cell_5_1 cell_5_2 cell_5_3 cell_5_4 cell_5_5 cell_5_6 cell_5_7 cell_5_8 cell_5_9) true))
(assert
 (and (distinct cell_6_1 cell_6_2 cell_6_3 cell_6_4 cell_6_5 cell_6_6 cell_6_7 cell_6_8 cell_6_9) true))
(assert
 (and (distinct cell_7_1 cell_7_2 cell_7_3 cell_7_4 cell_7_5 cell_7_6 cell_7_7 cell_7_8 cell_7_9) true))
(assert
 (and (distinct cell_8_1 cell_8_2 cell_8_3 cell_8_4 cell_8_5 cell_8_6 cell_8_7 cell_8_8 cell_8_9) true))
(assert
 (and (distinct cell_9_1 cell_9_2 cell_9_3 cell_9_4 cell_9_5 cell_9_6 cell_9_7 cell_9_8 cell_9_9) true))
(assert
 (and (distinct cell_1_1 cell_2_1 cell_3_1 cell_4_1 cell_5_1 cell_6_1 cell_7_1 cell_8_1 cell_9_1) true))
(assert
 (and (distinct cell_1_2 cell_2_2 cell_3_2 cell_4_2 cell_5_2 cell_6_2 cell_7_2 cell_8_2 cell_9_2) true))
(assert
 (and (distinct cell_1_3 cell_2_3 cell_3_3 cell_4_3 cell_5_3 cell_6_3 cell_7_3 cell_8_3 cell_9_3) true))
(assert
 (and (distinct cell_1_4 cell_2_4 cell_3_4 cell_4_4 cell_5_4 cell_6_4 cell_7_4 cell_8_4 cell_9_4) true))
(assert
 (and (distinct cell_1_5 cell_2_5 cell_3_5 cell_4_5 cell_5_5 cell_6_5 cell_7_5 cell_8_5 cell_9_5) true))
(assert
 (and (distinct cell_1_6 cell_2_6 cell_3_6 cell_4_6 cell_5_6 cell_6_6 cell_7_6 cell_8_6 cell_9_6) true))
(assert
 (and (distinct cell_1_7 cell_2_7 cell_3_7 cell_4_7 cell_5_7 cell_6_7 cell_7_7 cell_8_7 cell_9_7) true))
(assert
 (and (distinct cell_1_8 cell_2_8 cell_3_8 cell_4_8 cell_5_8 cell_6_8 cell_7_8 cell_8_8 cell_9_8) true))
(assert
 (and (distinct cell_1_9 cell_2_9 cell_3_9 cell_4_9 cell_5_9 cell_6_9 cell_7_9 cell_8_9 cell_9_9) true))
(assert
 (and (distinct cell_1_1 cell_1_2 cell_1_3 cell_2_1 cell_2_2 cell_2_3 cell_3_1 cell_3_2 cell_3_3) true))
(assert
 (and (distinct cell_1_4 cell_1_5 cell_1_6 cell_2_4 cell_2_5 cell_2_6 cell_3_4 cell_3_5 cell_3_6) true))
(assert
 (and (distinct cell_1_7 cell_1_8 cell_1_9 cell_2_7 cell_2_8 cell_2_9 cell_3_7 cell_3_8 cell_3_9) true))
(assert
 (and (distinct cell_4_1 cell_4_2 cell_4_3 cell_5_1 cell_5_2 cell_5_3 cell_6_1 cell_6_2 cell_6_3) true))
(assert
 (and (distinct cell_4_4 cell_4_5 cell_4_6 cell_5_4 cell_5_5 cell_5_6 cell_6_4 cell_6_5 cell_6_6) true))
(assert
 (and (distinct cell_4_7 cell_4_8 cell_4_9 cell_5_7 cell_5_8 cell_5_9 cell_6_7 cell_6_8 cell_6_9) true))
(assert
 (and (distinct cell_7_1 cell_7_2 cell_7_3 cell_8_1 cell_8_2 cell_8_3 cell_9_1 cell_9_2 cell_9_3) true))
(assert
 (and (distinct cell_7_4 cell_7_5 cell_7_6 cell_8_4 cell_8_5 cell_8_6 cell_9_4 cell_9_5 cell_9_6) true))
(assert
 (and (distinct cell_7_7 cell_7_8 cell_7_9 cell_8_7 cell_8_8 cell_8_9 cell_9_7 cell_9_8 cell_9_9) true))
(assert
 (let (($x856 (and (distinct cell_5_9 cell_6_8 cell_7_7 cell_8_6) true)))
 (let (($x5487 (and (distinct cell_2_9 cell_3_8 cell_4_7 cell_5_6 cell_6_5 cell_7_4 cell_8_3 cell_9_2) true)))
 (let (($x1432 (and (distinct cell_1_8 cell_2_7 cell_3_6 cell_4_5 cell_5_4 cell_6_3 cell_7_2 cell_8_1) true)))
 (let (($x7880 (and (distinct cell_1_5 cell_2_4 cell_3_3 cell_4_2) true)))
 (let (($x1671 (and (distinct cell_5_1 cell_6_2 cell_7_3 cell_8_4) true)))
 (let (($x6117 (and (distinct cell_2_1 cell_3_2 cell_4_3 cell_5_4 cell_6_5 cell_7_6 cell_8_7 cell_9_8) true)))
 (let (($x5116 (and (distinct cell_1_2 cell_2_3 cell_3_4 cell_4_5 cell_5_6 cell_6_7 cell_7_8 cell_8_9) true)))
 (let (($x4973 (and (distinct cell_1_5 cell_2_6 cell_3_7 cell_4_8) true)))
 (and $x4973 $x5116 $x6117 $x1671 $x7880 $x1432 $x5487 $x856))))))))))
(assert
 (= cell_6_2 2))
(check-sat)
